(set-logic QF_S)
(declare-fun x () String)
(declare-fun y () String)
(declare-fun z () Int)
(assert (not (= (str.contains "B" (str.replace "" x "A")) (str.contains x (str.replace "" x "A")))))
(check-sat)
